c random formula
p cnf 10 30
-4 -8 0
-6 -1 0
-9 -8 0
9 -8 0
-10 -4 0
-8 6 0
1 9 0
2 6 0
-3 2 0
4 -9 0
-10 -2 0
-2 6 0
-8 6 0
-9 2 0
-6 -1 0
-7 4 0
1 9 0
5 3 0
8 -5 0
10 4 0
-8 1 0
3 6 0
1 -3 0
-2 9 0
5 9 0
2 -7 0
-8 -7 0
-8 1 0
9 3 0
-8 -9 0
